50 982
1133 1076 817 1066 805 1131 349 925 1064 940 948 1010 853 1036 539 755 1094 555 1107 956 858 1136 919 1048 876 766 944 607 1147 658 1063 1064 1101 750 1050 1059 1036 562 742 807 723 836 895 467 201 777 891 42 947 1005 
946 819 420 800 406 941 70 560 795 583 595 695 463 742 171 352 858 182 887 606 470 955 552 764 493 363 588 220 982 261 793 796 872 347 768 785 741 187 339 408 320 442 518 127 23 375 513 1 593 686 
